2-dimensional/CL_05_25_07.vbp
2
1000 1000 
25
34 47 30
36 56 72
75 49 4
69 67 88
35 28 54
88 97 64
71 92 90
76 79 26
68 74 94
40 46 28
83 59 72
90 56 49
51 79 54
58 44 19
78 42 28
28 41 61
75 33 84
34 33 23
48 84 67
58 26 53
31 28 54
34 55 16
83 99 9
70 27 54
62 31 77
