datasets/2-dimensional/CL_05_25_07.txt
1000 1000 
0 30 34 47 
1 72 36 56 
2 4 75 49 
3 88 69 67 
4 54 35 28 
5 64 88 97 
6 90 71 92 
7 26 76 79 
8 94 68 74 
9 28 40 46 
10 72 83 59 
11 49 90 56 
12 54 51 79 
13 19 58 44 
14 28 78 42 
15 61 28 41 
16 84 75 33 
17 23 34 33 
18 67 48 84 
19 53 58 26 
20 54 31 28 
21 16 34 55 
22 9 83 99 
23 54 70 27 
24 77 62 31 
